50, 956
40, 42
35, 38
39, 34
21, 26
35, 30
35, 30
22, 25
54, 49
40, 41
24, 25
26, 26
41, 46
48, 47
28, 26
35, 34
32, 27
33, 38
27, 29
44, 48
38, 42
48, 49
41, 41
41, 41
45, 41
51, 47
28, 30
32, 33
22, 25
31, 34
36, 40
40, 42
44, 42
40, 35
42, 47
42, 44
48, 46
50, 48
45, 44
48, 47
41, 44
24, 26
41, 37
28, 31
53, 49
35, 34
44, 42
51, 46
35, 37
49, 46
38, 41
